************************************************************************
file with basedata            : mm34_.bas
initial value random generator: 1573087201
************************************************************************
projects                      :  1
jobs (incl. supersource/sink ):  12
horizon                       :  80
RESOURCES
  - renewable                 :  2   R
  - nonrenewable              :  2   N
  - doubly constrained        :  0   D
************************************************************************
PROJECT INFORMATION:
pronr.  #jobs rel.date duedate tardcost  MPM-Time
    1     10      0        7        3        7
************************************************************************
PRECEDENCE RELATIONS:
jobnr.    #modes  #successors   successors
   1        1          3           2   3   4
   2        3          2           5   8
   3        3          2           9  10
   4        3          3           6   9  10
   5        3          2           7  11
   6        3          1          11
   7        3          1           9
   8        3          1          10
   9        3          1          12
  10        3          1          12
  11        3          1          12
  12        1          0        
************************************************************************
REQUESTS/DURATIONS:
jobnr. mode duration  R 1  R 2  N 1  N 2
------------------------------------------------------------------------
  1      1     0       0    0    0    0
  2      1     4       6    2    0    7
         2     5       6    1    0    7
         3     8       6    1    5    0
  3      1     5       3    7    6    0
         2     6       3    7    0    2
         3     9       1    7    0    2
  4      1     1       9    9   10    0
         2     2       6    8    5    0
         3     6       4    7    1    0
  5      1     1       9    9    2    0
         2     4       8    7    0    2
         3     9       3    7    2    0
  6      1     2       7   10    3    0
         2     4       7   10    0    3
         3     9       5    9    2    0
  7      1     1       6    4    9    0
         2     6       5    4    3    0
         3     9       3    4    0    4
  8      1     1       7    6    0    6
         2     2       6    4    0    5
         3     9       5    3    8    0
  9      1     1       9    3    5    0
         2     1       8    3    0    9
         3     2       7    3    5    0
 10      1     1       2    8    0    8
         2     6       2    7    3    0
         3    10       2    4    0    8
 11      1     2       9    3    0    3
         2     2       8    3    6    0
         3     9       4    3    0    4
 12      1     0       0    0    0    0
************************************************************************
RESOURCEAVAILABILITIES:
  R 1  R 2  N 1  N 2
    9   12   29   23
************************************************************************
MAXIMAL LAGS:
from  to  type  delay
    1   12   ES      0
    1    2   ES      0
    2   12   ES      0
    1    3   ES      0
    3   12   ES      0
    1    4   ES      0
    4   12   ES      0
    1    5   ES      0
    5   12   ES      0
    1    6   ES      0
    6   12   ES      0
    1    7   ES      0
    7   12   ES      0
    1    8   ES      0
    8   12   ES      0
    1    9   ES      0
    9   12   ES      0
    1   10   ES      0
   10   12   ES      0
    1   11   ES      0
   11   12   ES      0
    1   12   ES      0
    2    5   SS      1
    2    5   SE     -7
    2    5   ES     -2
    2    5   EE     11
    2    8   SS      3
    2    8   SE     12
    2    8   ES     -8
    2    8   EE      5
    3    9   SS      9
    3    9   SE      8
    3    9   ES      2
    3    9   EE    -11
    3   10   SS     -6
    3   10   SE     -8
    3   10   ES    -11
    3   10   EE     -5
    4    6   SS     -7
    4    6   SE    -11
    4    6   ES      3
    4    6   EE     -4
    4    9   SS     -7
    4    9   SE     10
    4    9   ES      2
    4    9   EE      1
    4   10   SS     -9
    4   10   SE      3
    4   10   ES    -11
    4   10   EE      2
    5    7   SS     -1
    5    7   SE     10
    5    7   ES      5
    5    7   EE      3
    5   11   SS      2
    5   11   SE      3
    5   11   ES     -9
    5   11   EE     11
    6   11   SS     -8
    6   11   SE     -9
    6   11   ES     -1
    6   11   EE    -10
    7    9   SS     -6
    7    9   SE     -3
    7    9   ES     -7
    7    9   EE     -7
    8   10   SS     11
    8   10   SE      4
    8   10   ES     -4
    8   10   EE      6
************************************************************************
